words_hard_train/7069.qaiger
aag 31 16 0 1 15
2
4
8
10
14
16
22
26
28
32
34
42
44
48
50
56
63
6 3 5
12 9 11
18 15 17
20 13 19
24 21 23
30 27 29
36 33 35
38 30 36
40 24 38
46 43 45
52 49 51
54 46 52
58 54 57
60 40 58
62 6 61
i0 1 x1[7]
i1 2 y2[7]
i2 1 x1[0]
i3 2 y2[0]
i4 1 x1[1]
i5 2 y2[1]
i6 1 x1[3]
i7 1 x1[4]
i8 2 y2[6]
i9 1 x1[5]
i10 1 x1[6]
i11 2 y2[2]
i12 2 y2[4]
i13 2 y2[3]
i14 2 y2[5]
i15 1 x1[2]
o0 bv[0]
c
simplified
  <
    or
      2 y2
      1 x1
    subtract
      1
      invert
        1
