words_hard_train/7069.qaiger.qdimacs
p cnf 31 46
a 1 4 7 11 13 16 17 28 0
e 2 3 5 6 8 9 10 12 14 15 18 19 20 21 22 23 24 25 26 27 29 30 31 0
1 2 3 0
-1 -3 0
-2 -3 0
4 5 6 0
-4 -6 0
-5 -6 0
7 8 9 0
-7 -9 0
-8 -9 0
6 9 10 0
-6 -10 0
-9 -10 0
10 11 12 0
-10 -12 0
-11 -12 0
13 14 15 0
-13 -15 0
-14 -15 0
16 17 18 0
-16 -18 0
-17 -18 0
-15 -18 19 0
15 -19 0
18 -19 0
-12 -19 20 0
12 -20 0
19 -20 0
21 22 23 0
-21 -23 0
-22 -23 0
24 25 26 0
-24 -26 0
-25 -26 0
-23 -26 27 0
23 -27 0
26 -27 0
-27 28 29 0
27 -29 0
-28 -29 0
-20 -29 30 0
20 -30 0
29 -30 0
-3 30 31 0
3 -31 0
-30 -31 0
-31 0
